TOUR_SECTION
1
34
19
5
7
8
20
2
17
22
21
23
6
63
18
9
13
12
58
59
60
32
10
3
27
29
11
4
14
16
15
36
64
62
61
52
53
54
56
51
40
55
39
37
30
28
31
33
45
26
25
24
43
35
38
57
41
42
48
49
50
47
46
44
-1
EOF